c colouring generated by benchmark framework
p edge 309 492
v 1 0
v 2 1
v 3 0
v 4 3
v 5 2
v 6 3
v 7 3
v 8 1
v 9 0
v 10 1
v 11 1
v 12 2
v 13 0
v 14 3
v 15 2
v 16 2
v 17 3
v 18 0
v 19 2
v 20 1
v 21 0
v 22 1
v 23 2
v 24 0
v 25 1
v 26 3
v 27 1
v 28 3
v 29 0
v 30 1
v 31 0
v 32 3
v 33 2
v 34 0
v 35 2
v 36 3
v 37 0
v 38 1
v 39 3
v 40 1
v 41 1
v 42 1
v 43 0
v 44 0
v 45 0
v 46 1
v 47 2
v 48 3
v 49 2
v 50 2
v 51 2
v 52 3
v 53 0
v 54 2
v 55 2
v 56 3
v 57 2
v 58 3
v 59 1
v 60 3
v 61 0
v 62 1
v 63 1
v 64 2
v 65 1
v 66 2
v 67 1
v 68 2
v 69 1
v 70 1
v 71 1
v 72 3
v 73 2
v 74 2
v 75 2
v 76 1
v 77 1
v 78 1
v 79 2
v 80 1
v 81 3
v 82 1
v 83 1
v 84 1
v 85 1
v 86 3
v 87 3
v 88 3
v 89 2
v 90 2
v 91 2
v 92 3
v 93 1
v 94 3
v 95 0
v 96 0
v 97 3
v 98 1
v 99 3
v 100 2
v 101 0
v 102 2
v 103 2
v 104 1
v 105 0
v 106 2
v 107 0
v 108 0
v 109 2
v 110 2
v 111 3
v 112 3
v 113 1
v 114 3
v 115 0
v 116 2
v 117 1
v 118 2
v 119 0
v 120 0
v 121 0
v 122 2
v 123 2
v 124 0
v 125 0
v 126 3
v 127 1
v 128 1
v 129 0
v 130 0
v 131 2
v 132 2
v 133 1
v 134 1
v 135 0
v 136 3
v 137 0
v 138 1
v 139 2
v 140 3
v 141 3
v 142 3
v 143 1
v 144 1
v 145 1
v 146 1
v 147 3
v 148 1
v 149 1
v 150 2
v 151 0
v 152 0
v 153 0
v 154 0
v 155 2
v 156 2
v 157 2
v 158 1
v 159 3
v 160 0
v 161 0
v 162 2
v 163 2
v 164 2
v 165 0
v 166 2
v 167 1
v 168 3
v 169 1
v 170 2
v 171 1
v 172 3
v 173 2
v 174 1
v 175 2
v 176 0
v 177 2
v 178 1
v 179 3
v 180 0
v 181 1
v 182 1
v 183 0
v 184 2
v 185 2
v 186 1
v 187 0
v 188 3
v 189 1
v 190 2
v 191 2
v 192 0
v 193 2
v 194 3
v 195 0
v 196 0
v 197 1
v 198 0
v 199 0
v 200 0
v 201 1
v 202 1
v 203 3
v 204 1
v 205 0
v 206 1
v 207 3
v 208 0
v 209 0
v 210 0
v 211 2
v 212 0
v 213 3
v 214 0
v 215 0
v 216 0
v 217 0
v 218 2
v 219 1
v 220 0
v 221 0
v 222 3
v 223 2
v 224 0
v 225 3
v 226 1
v 227 0
v 228 2
v 229 3
v 230 2
v 231 0
v 232 2
v 233 2
v 234 3
v 235 2
v 236 2
v 237 2
v 238 2
v 239 3
v 240 0
v 241 3
v 242 2
v 243 2
v 244 1
v 245 3
v 246 2
v 247 0
v 248 2
v 249 2
v 250 2
v 251 2
v 252 3
v 253 3
v 254 3
v 255 1
v 256 3
v 257 0
v 258 1
v 259 1
v 260 3
v 261 3
v 262 3
v 263 1
v 264 3
v 265 2
v 266 3
v 267 3
v 268 1
v 269 0
v 270 1
v 271 1
v 272 1
v 273 3
v 274 0
v 275 0
v 276 2
v 277 2
v 278 2
v 279 1
v 280 0
v 281 3
v 282 1
v 283 3
v 284 3
v 285 1
v 286 2
v 287 1
v 288 3
v 289 1
v 290 0
v 291 2
v 292 1
v 293 1
v 294 3
v 295 0
v 296 0
v 297 2
v 298 2
v 299 2
v 300 3
v 301 1
v 302 3
v 303 1
v 304 3
v 305 0
v 306 3
v 307 1
v 308 1
v 309 0
